************************************************************************
file with basedata            : c2132_.bas
initial value random generator: 496527368
************************************************************************
projects                      :  1
jobs (incl. supersource/sink ):  18
horizon                       :  116
RESOURCES
  - renewable                 :  2   R
  - nonrenewable              :  2   N
  - doubly constrained        :  0   D
************************************************************************
PROJECT INFORMATION:
pronr.  #jobs rel.date duedate tardcost  MPM-Time
    1     16      0       17       14       17
************************************************************************
PRECEDENCE RELATIONS:
jobnr.    #modes  #successors   successors
   1        1          3           2   3   4
   2        3          3           5   6   7
   3        3          3           5   6  14
   4        3          2          10  11
   5        3          3           8  10  11
   6        3          3           8  10  13
   7        3          3           8   9  11
   8        3          2          12  17
   9        3          3          12  13  14
  10        3          2          15  16
  11        3          2          12  13
  12        3          1          15
  13        3          3          15  16  17
  14        3          2          16  17
  15        3          1          18
  16        3          1          18
  17        3          1          18
  18        1          0        
************************************************************************
REQUESTS/DURATIONS:
jobnr. mode duration  R 1  R 2  N 1  N 2
------------------------------------------------------------------------
  1      1     0       0    0    0    0
  2      1     1       9    8    8    0
         2     5       7    5    6    0
         3     6       6    4    0    4
  3      1     1       9    3    0   10
         2     2       8    3   10    0
         3     3       5    3    7    0
  4      1     2       7    5    0    7
         2     3       7    5    6    0
         3     9       7    3    0    6
  5      1     1      10    7    0   10
         2     3       8    4    0    9
         3     3       5    6    0    9
  6      1     1       5   10    0    7
         2     1       4   10    7    0
         3     9       4   10    0    6
  7      1     3       9    6    0    6
         2     4       8    6    3    0
         3     8       7    5    0    4
  8      1     1       7    5    0    5
         2     2       4    5    0    5
         3     6       3    4    0    4
  9      1     1       9    9    0   10
         2     4       5    7    0    7
         3     8       4    5    0    1
 10      1     6       8    8    0    8
         2     7       7    7    0    7
         3     7       5    8    7    0
 11      1     2       6    5    4    0
         2     2       9    5    0    8
         3    10       4    4    0    6
 12      1     1       5   10    9    0
         2     1       5   10    0    5
         3     7       5    9    0    5
 13      1     8       5    9    6    0
         2     9       4    9    3    0
         3     9       3    9    0    3
 14      1     4       7    9    0    9
         2     7       6    8    0    9
         3    10       4    8    8    0
 15      1     1       6    6    0    8
         2     2       5    4    8    0
         3     9       5    3    3    0
 16      1     1       9    8    7    0
         2     3       7    5    0    7
         3     6       7    4    0    4
 17      1     3       7    6    7    0
         2     5       7    5    3    0
         3     6       4    5    0    8
 18      1     0       0    0    0    0
************************************************************************
RESOURCEAVAILABILITIES:
  R 1  R 2  N 1  N 2
   33   36   90  115
************************************************************************
